words_hard_train/6820.qaiger
aag 172 24 0 1 148
2
4
12
14
18
22
26
30
34
48
56
68
84
100
116
132
188
252
264
276
286
296
308
332
344
6 2 4
8 3 5
10 7 9
16 13 15
20 16 19
24 20 23
28 24 27
32 28 31
36 32 35
38 10 37
40 11 36
42 39 41
44 12 14
46 45 17
50 47 49
52 46 48
54 51 53
58 56 12
60 54 58
62 61 53
64 17 18
66 65 21
70 67 69
72 66 68
74 71 73
76 63 74
78 77 73
80 21 22
82 81 25
86 83 85
88 82 84
90 87 89
92 79 90
94 93 89
96 25 26
98 97 29
102 99 101
104 98 100
106 103 105
108 95 106
110 109 105
112 29 30
114 113 33
118 115 117
120 114 116
122 119 121
124 111 122
126 125 121
128 33 34
130 129 37
134 131 133
136 130 132
138 135 137
140 127 138
142 141 137
144 43 143
146 42 142
148 145 147
150 55 59
152 151 61
154 153 117
156 152 116
158 155 157
160 57 13
162 161 59
164 162 100
166 158 164
168 167 157
170 62 75
172 171 77
174 173 133
176 172 132
178 175 177
180 169 178
182 181 177
184 78 91
186 185 93
190 187 189
192 186 188
194 191 193
196 183 194
198 197 193
200 94 107
202 201 109
204 203 189
206 202 188
208 205 207
210 199 208
212 211 207
214 110 123
216 215 125
218 217 189
220 216 188
222 219 221
224 213 222
226 225 221
228 126 139
230 229 141
232 231 189
234 230 188
236 233 235
238 227 236
240 239 235
242 149 241
244 148 240
246 243 245
248 226 237
250 249 239
254 250 253
256 251 252
258 255 257
260 159 165
262 261 167
266 263 265
268 262 264
270 267 269
272 182 195
274 273 197
278 274 277
280 271 279
282 168 179
284 283 181
288 284 287
290 280 289
292 198 209
294 293 211
298 294 297
300 290 299
302 285 286
304 163 101
306 305 165
310 306 309
312 303 311
314 307 308
316 275 276
318 315 317
320 312 318
322 300 320
324 295 296
326 322 325
328 212 223
330 329 225
334 330 332
336 331 333
338 335 337
340 326 339
342 258 340
344 247 342
i0 2 y2[7]
i1 2 y1[7]
i2 2 y1[0]
i3 2 y1[1]
i4 2 y1[2]
i5 2 y1[3]
i6 2 y1[4]
i7 2 y1[5]
i8 2 y1[6]
i9 1 x2[1]
i10 1 x2[0]
i11 1 x2[2]
i12 1 x2[3]
i13 1 x2[4]
i14 1 x2[5]
i15 1 x2[6]
i16 1 x2[7]
i17 2 y2[6]
i18 2 y2[1]
i19 2 y2[3]
i20 2 y2[2]
i21 2 y2[4]
i22 2 y2[0]
i23 2 y2[5]
o0 bool[0]
c
simplified
  ==
    add
      subtract
        1 x2
        2 y1
      >> 4
        1 x2
    2 y2
