words_hard_train/6820.qaiger.qdimacs
p cnf 172 445
a 34 66 42 50 24 58 28 94 0
e 1 2 3 4 5 6 7 8 9 10 11 12 13 14 15 16 17 18 19 20 21 22 23 25 26 27 29 30 31 32 33 35 36 37 38 39 40 41 43 44 45 46 47 48 49 51 52 53 54 55 56 57 59 60 61 62 63 64 65 67 68 69 70 71 72 73 74 75 76 77 78 79 80 81 82 83 84 85 86 87 88 89 90 91 92 93 95 96 97 98 99 100 101 102 103 104 105 106 107 108 109 110 111 112 113 114 115 116 117 118 119 120 121 122 123 124 125 126 127 128 129 130 131 132 133 134 135 136 137 138 139 140 141 142 143 144 145 146 147 148 149 150 151 152 153 154 155 156 157 158 159 160 161 162 163 164 165 166 167 168 169 170 171 172 0
-1 -2 3 0
1 -3 0
2 -3 0
1 2 4 0
-1 -4 0
-2 -4 0
3 4 5 0
-3 -5 0
-4 -5 0
6 7 8 0
-6 -8 0
-7 -8 0
-8 9 10 0
8 -10 0
-9 -10 0
-10 11 12 0
10 -12 0
-11 -12 0
-12 13 14 0
12 -14 0
-13 -14 0
-14 15 16 0
14 -16 0
-15 -16 0
-16 17 18 0
16 -18 0
-17 -18 0
-5 18 19 0
5 -19 0
-18 -19 0
5 -18 20 0
-5 -20 0
18 -20 0
19 20 21 0
-19 -21 0
-20 -21 0
-6 -7 22 0
6 -22 0
7 -22 0
22 8 23 0
-22 -23 0
-8 -23 0
23 24 25 0
-23 -25 0
-24 -25 0
-23 -24 26 0
23 -26 0
24 -26 0
25 26 27 0
-25 -27 0
-26 -27 0
-28 -6 29 0
28 -29 0
6 -29 0
-27 -29 30 0
27 -30 0
29 -30 0
30 26 31 0
-30 -31 0
-26 -31 0
8 -9 32 0
-8 -32 0
9 -32 0
32 10 33 0
-32 -33 0
-10 -33 0
33 34 35 0
-33 -35 0
-34 -35 0
-33 -34 36 0
33 -36 0
34 -36 0
35 36 37 0
-35 -37 0
-36 -37 0
31 -37 38 0
-31 -38 0
37 -38 0
38 36 39 0
-38 -39 0
-36 -39 0
10 -11 40 0
-10 -40 0
11 -40 0
40 12 41 0
-40 -41 0
-12 -41 0
41 42 43 0
-41 -43 0
-42 -43 0
-41 -42 44 0
41 -44 0
42 -44 0
43 44 45 0
-43 -45 0
-44 -45 0
39 -45 46 0
-39 -46 0
45 -46 0
46 44 47 0
-46 -47 0
-44 -47 0
12 -13 48 0
-12 -48 0
13 -48 0
48 14 49 0
-48 -49 0
-14 -49 0
49 50 51 0
-49 -51 0
-50 -51 0
-49 -50 52 0
49 -52 0
50 -52 0
51 52 53 0
-51 -53 0
-52 -53 0
47 -53 54 0
-47 -54 0
53 -54 0
54 52 55 0
-54 -55 0
-52 -55 0
14 -15 56 0
-14 -56 0
15 -56 0
56 16 57 0
-56 -57 0
-16 -57 0
57 58 59 0
-57 -59 0
-58 -59 0
-57 -58 60 0
57 -60 0
58 -60 0
59 60 61 0
-59 -61 0
-60 -61 0
55 -61 62 0
-55 -62 0
61 -62 0
62 60 63 0
-62 -63 0
-60 -63 0
16 -17 64 0
-16 -64 0
17 -64 0
64 18 65 0
-64 -65 0
-18 -65 0
65 66 67 0
-65 -67 0
-66 -67 0
-65 -66 68 0
65 -68 0
66 -68 0
67 68 69 0
-67 -69 0
-68 -69 0
63 -69 70 0
-63 -70 0
69 -70 0
70 68 71 0
-70 -71 0
-68 -71 0
21 71 72 0
-21 -72 0
-71 -72 0
-21 -71 73 0
21 -73 0
71 -73 0
72 73 74 0
-72 -74 0
-73 -74 0
27 29 75 0
-27 -75 0
-29 -75 0
75 30 76 0
-75 -76 0
-30 -76 0
76 58 77 0
-76 -77 0
-58 -77 0
-76 -58 78 0
76 -78 0
58 -78 0
77 78 79 0
-77 -79 0
-78 -79 0
28 6 80 0
-28 -80 0
-6 -80 0
80 29 81 0
-80 -81 0
-29 -81 0
-81 -50 82 0
81 -82 0
50 -82 0
-79 -82 83 0
79 -83 0
82 -83 0
83 78 84 0
-83 -84 0
-78 -84 0
-31 37 85 0
31 -85 0
-37 -85 0
85 38 86 0
-85 -86 0
-38 -86 0
86 66 87 0
-86 -87 0
-66 -87 0
-86 -66 88 0
86 -88 0
66 -88 0
87 88 89 0
-87 -89 0
-88 -89 0
84 -89 90 0
-84 -90 0
89 -90 0
90 88 91 0
-90 -91 0
-88 -91 0
-39 45 92 0
39 -92 0
-45 -92 0
92 46 93 0
-92 -93 0
-46 -93 0
93 94 95 0
-93 -95 0
-94 -95 0
-93 -94 96 0
93 -96 0
94 -96 0
95 96 97 0
-95 -97 0
-96 -97 0
91 -97 98 0
-91 -98 0
97 -98 0
98 96 99 0
-98 -99 0
-96 -99 0
-47 53 100 0
47 -100 0
-53 -100 0
100 54 101 0
-100 -101 0
-54 -101 0
101 94 102 0
-101 -102 0
-94 -102 0
-101 -94 103 0
101 -103 0
94 -103 0
102 103 104 0
-102 -104 0
-103 -104 0
99 -104 105 0
-99 -105 0
104 -105 0
105 103 106 0
-105 -106 0
-103 -106 0
-55 61 107 0
55 -107 0
-61 -107 0
107 62 108 0
-107 -108 0
-62 -108 0
108 94 109 0
-108 -109 0
-94 -109 0
-108 -94 110 0
108 -110 0
94 -110 0
109 110 111 0
-109 -111 0
-110 -111 0
106 -111 112 0
-106 -112 0
111 -112 0
112 110 113 0
-112 -113 0
-110 -113 0
-63 69 114 0
63 -114 0
-69 -114 0
114 70 115 0
-114 -115 0
-70 -115 0
115 94 116 0
-115 -116 0
-94 -116 0
-115 -94 117 0
115 -117 0
94 -117 0
116 117 118 0
-116 -118 0
-117 -118 0
113 -118 119 0
-113 -119 0
118 -119 0
119 117 120 0
-119 -120 0
-117 -120 0
74 120 121 0
-74 -121 0
-120 -121 0
-74 -120 122 0
74 -122 0
120 -122 0
121 122 123 0
-121 -123 0
-122 -123 0
-113 118 124 0
113 -124 0
-118 -124 0
124 119 125 0
-124 -125 0
-119 -125 0
-125 126 127 0
125 -127 0
-126 -127 0
125 -126 128 0
-125 -128 0
126 -128 0
127 128 129 0
-127 -129 0
-128 -129 0
79 82 130 0
-79 -130 0
-82 -130 0
130 83 131 0
-130 -131 0
-83 -131 0
131 132 133 0
-131 -133 0
-132 -133 0
-131 -132 134 0
131 -134 0
132 -134 0
133 134 135 0
-133 -135 0
-134 -135 0
-91 97 136 0
91 -136 0
-97 -136 0
136 98 137 0
-136 -137 0
-98 -137 0
-137 138 139 0
137 -139 0
-138 -139 0
135 139 140 0
-135 -140 0
-139 -140 0
-84 89 141 0
84 -141 0
-89 -141 0
141 90 142 0
-141 -142 0
-90 -142 0
-142 143 144 0
142 -144 0
-143 -144 0
-140 144 145 0
140 -145 0
-144 -145 0
-99 104 146 0
99 -146 0
-104 -146 0
146 105 147 0
-146 -147 0
-105 -147 0
-147 148 149 0
147 -149 0
-148 -149 0
-145 149 150 0
145 -150 0
-149 -150 0
142 -143 151 0
-142 -151 0
143 -151 0
81 50 152 0
-81 -152 0
-50 -152 0
152 82 153 0
-152 -153 0
-82 -153 0
-153 154 155 0
153 -155 0
-154 -155 0
151 155 156 0
-151 -156 0
-155 -156 0
153 -154 157 0
-153 -157 0
154 -157 0
137 -138 158 0
-137 -158 0
138 -158 0
157 158 159 0
-157 -159 0
-158 -159 0
-156 -159 160 0
156 -160 0
159 -160 0
-150 -160 161 0
150 -161 0
160 -161 0
147 -148 162 0
-147 -162 0
148 -162 0
-161 162 163 0
161 -163 0
-162 -163 0
-106 111 164 0
106 -164 0
-111 -164 0
164 112 165 0
-164 -165 0
-112 -165 0
-165 -166 167 0
165 -167 0
166 -167 0
165 166 168 0
-165 -168 0
-166 -168 0
167 168 169 0
-167 -169 0
-168 -169 0
-163 169 170 0
163 -170 0
-169 -170 0
-129 -170 171 0
129 -171 0
170 -171 0
123 -171 172 0
-123 -172 0
171 -172 0
172 0
